Version identifier: 12.10.0.0 | 2019-11-26 | 843d4de
CPXPARAM_WorkMem                                 28672
Tried aggregator 2 times.
Aggregator did 30 substitutions.
Reduced MIP has 103 rows, 120 columns, and 462 nonzeros.
Reduced MIP has 120 binaries, 0 generals, 0 SOSs, and 0 indicators.
Presolve time = 0,00 sec. (0,44 ticks)
Found incumbent of value 546,000000 after 0,00 sec. (0,79 ticks)
Probing time = 0,00 sec. (0,16 ticks)
Tried aggregator 1 time.
Detecting symmetries...
MIP Presolve eliminated 30 rows and 0 columns.
MIP Presolve added 60 rows and 0 columns.
Reduced MIP has 133 rows, 120 columns, and 492 nonzeros.
Reduced MIP has 120 binaries, 0 generals, 0 SOSs, and 0 indicators.
Presolve time = 0,00 sec. (0,61 ticks)
Probing time = 0,00 sec. (0,15 ticks)
Clique table members: 322.
MIP emphasis: balance optimality and feasibility.
MIP search method: dynamic search.
Parallel mode: deterministic, using up to 16 threads.
Root relaxation solution time = 0,00 sec. (0,41 ticks)

        Nodes                                         Cuts/
   Node  Left     Objective  IInf  Best Integer    Best Bound    ItCnt     Gap

*     0+    0                          546,0000        0,0000           100,00%
*     0+    0                          335,0000        0,0000           100,00%
      0     0      182,0000    86      335,0000      182,0000       53   45,67%
      0     0      182,0000    86      335,0000     Cuts: 110       81   45,67%
      0     0      183,4525    86      335,0000      Cuts: 72      103   45,24%
      0     0      185,3181    86      335,0000      Cuts: 71      113   44,68%
      0     0      185,6652    86      335,0000      Cuts: 59      118   44,58%
      0     0      186,0687    86      335,0000      Cuts: 37      122   44,46%
      0     0      237,0503    86      335,0000      Cuts: 97      287   29,24%
      0     0      237,4202    86      335,0000      Cuts: 31      292   29,13%
      0     0      237,5244    86      335,0000       Cuts: 2      304   29,10%
      0     2      237,5244   103      335,0000      329,0000      304    1,79%
Elapsed time = 0,18 sec. (29,38 ticks, tree = 0,02 MB, solutions = 2)

Clique cuts applied:  17
Cover cuts applied:  52
Implied bound cuts applied:  4
Flow cuts applied:  3
Mixed integer rounding cuts applied:  37
Zero-half cuts applied:  6
Gomory fractional cuts applied:  4

Root node processing (before b&c):
  Real time             =    0,16 sec. (29,24 ticks)
Parallel b&c, 16 threads:
  Real time             =    0,08 sec. (7,28 ticks)
  Sync time (average)   =    0,05 sec.
  Wait time (average)   =    0,00 sec.
                          ------------
Total (root+branch&cut) =    0,24 sec. (36,51 ticks)
